50
    81    15    47    26    65    78    39    41    96    48    36    80    37    89     9    79    94    32    22    88    12    73    27    75    76    73    68    20    14    61    80    22    92    29    88    94    19    37     7    66    44     7    45    81    54    31    97     1    81    63
     3     2     4     2     6     7     1     8     3     9     4     8    10     3     4     3     6    10     8     4     3     2     9     2     6     1     8     7    10     8     5     9     5     5     5     7     9     1    10     2     6     8     1    10     1     5     5     3     1     3
   534   591   789   626   759   497   400   272   722   604   635   382   290   471   291   614   643   498   370   483   606   402   547   317   612   583   637   400   615   594   737   354   367   503   588   378   490   417   775   635   647   272   506   382   616   406   393   523   564   289
